networks/zoo_42_84/zoo_42_84.sol
<?xml version = "1.0" encoding="UTF-8" standalone="yes"?>
<CPLEXSolution version="1.2">
 <header
   problemName="networks/zoo_42_84/zoo_42_84.lp"
   solutionName="incumbent"
   solutionIndex="-1"
   objectiveValue="22"
   solutionTypeValue="3"
   solutionTypeString="primal"
   solutionStatusValue="101"
   solutionStatusString="integer optimal solution"
   solutionMethodString="mip"
   primalFeasible="1"
   dualFeasible="1"
   MIPNodes="0"
   MIPIterations="1551"
   writeLevel="3"/>
 <quality
   epInt="1.0000000000000001e-05"
   epRHS="9.9999999999999995e-07"
   maxIntInfeas="0"
   maxPrimalInfeas="0"
   maxX="4"
   maxSlack="10"/>
 <variables>
  <variable name="Y(3,2)" index="71" value="1"/>
  <variable name="Y(7,12)" index="221" value="1"/>
  <variable name="Y(15,4)" index="493" value="1"/>
  <variable name="Y(18,21)" index="614" value="1"/>
  <variable name="Y(20,2)" index="666" value="1"/>
  <variable name="Y(21,4)" index="703" value="1"/>
  <variable name="Y(22,7)" index="741" value="1"/>
  <variable name="Y(27,17)" index="926" value="1"/>
  <variable name="Y(30,1)" index="1015" value="1"/>
  <variable name="Y(33,14)" index="1133" value="1"/>
  <variable name="Y(36,19)" index="1242" value="1"/>
  <variable name="Y(40,2)" index="1366" value="1"/>
  <variable name="Y(41,16)" index="1415" value="1"/>
  <variable name="Y(47,3)" index="1612" value="1"/>
  <variable name="Y(49,6)" index="1685" value="1"/>
  <variable name="Y(51,8)" index="1757" value="1"/>
  <variable name="Y(52,11)" index="1795" value="1"/>
  <variable name="Y(61,12)" index="2111" value="1"/>
  <variable name="Y(62,16)" index="2150" value="1"/>
  <variable name="Y(69,13)" index="2392" value="1"/>
  <variable name="Y(71,15)" index="2464" value="1"/>
  <variable name="Y(81,12)" index="2811" value="1"/>
  <variable name="X(1,17,27)" index="2966" value="1"/>
  <variable name="X(1,22,30)" index="3053" value="1"/>
  <variable name="X(2,3,18)" index="3125" value="1"/>
  <variable name="X(2,4,3)" index="3194" value="1"/>
  <variable name="X(2,5,49)" index="3324" value="1"/>
  <variable name="X(2,7,40)" index="3399" value="1"/>
  <variable name="X(2,23,20)" index="3463" value="1"/>
  <variable name="X(3,2,40)" index="3567" value="1"/>
  <variable name="X(3,13,7)" index="3618" value="1"/>
  <variable name="X(3,21,18)" index="3713" value="1"/>
  <variable name="X(3,24,47)" index="3826" value="1"/>
  <variable name="X(4,2,15)" index="3878" value="1"/>
  <variable name="X(4,25,21)" index="3968" value="1"/>
  <variable name="X(5,2,20)" index="4051" value="1"/>
  <variable name="X(5,4,21)" index="4136" value="1"/>
  <variable name="X(5,8,49)" index="4248" value="1"/>
  <variable name="X(6,27,49)" index="4332" value="1"/>
  <variable name="X(7,2,18)" index="4385" value="1"/>
  <variable name="X(7,28,22)" index="4473" value="1"/>
  <variable name="X(8,5,20)" index="4555" value="1"/>
  <variable name="X(8,6,49)" index="4668" value="1"/>
  <variable name="X(8,7,22)" index="4725" value="1"/>
  <variable name="X(8,29,51)" index="4838" value="1"/>
  <variable name="X(9,10,36)" index="4907" value="1"/>
  <variable name="X(9,15,33)" index="4988" value="1"/>
  <variable name="X(10,11,36)" index="5075" value="1"/>
  <variable name="X(11,16,41)" index="5164" value="1"/>
  <variable name="X(11,19,36)" index="5243" value="1"/>
  <variable name="X(11,32,52)" index="5343" value="1"/>
  <variable name="X(12,13,61)" index="5436" value="1"/>
  <variable name="X(12,14,81)" index="5540" value="1"/>
  <variable name="X(12,15,71)" index="5614" value="1"/>
  <variable name="X(12,20,52)" index="5679" value="1"/>
  <variable name="X(12,33,7)" index="5718" value="1"/>
  <variable name="X(13,3,47)" index="5842" value="1"/>
  <variable name="X(13,12,7)" index="5886" value="1"/>
  <variable name="X(13,34,69)" index="6032" value="1"/>
  <variable name="X(14,35,33)" index="6080" value="1"/>
  <variable name="X(15,12,61)" index="6192" value="1"/>
  <variable name="X(15,14,33)" index="6248" value="1"/>
  <variable name="X(15,16,71)" index="6370" value="1"/>
  <variable name="X(16,11,62)" index="6445" value="1"/>
  <variable name="X(16,15,61)" index="6528" value="1"/>
  <variable name="X(16,37,41)" index="6592" value="1"/>
  <variable name="X(17,1,30)" index="6665" value="1"/>
  <variable name="X(17,38,27)" index="6746" value="1"/>
  <variable name="X(19,11,52)" index="6855" value="1"/>
  <variable name="X(19,20,40)" index="6927" value="1"/>
  <variable name="X(19,40,36)" index="7007" value="1"/>
  <variable name="X(20,12,81)" index="7136" value="1"/>
  <variable name="X(20,17,30)" index="7169" value="1"/>
  <variable name="X(20,19,52)" index="7275" value="1"/>
  <variable name="X(20,21,40)" index="7347" value="1"/>
  <variable name="X(21,1,27)" index="7418" value="1"/>
  <variable name="X(21,3,40)" index="7515" value="1"/>
  <variable name="X(21,20,81)" index="7640" value="1"/>
  <variable name="X(21,42,18)" index="7661" value="1"/>
  <variable name="C(7,13)" index="7750" value="1"/>
  <variable name="C(7,12)" index="7751" value="2"/>
  <variable name="C(18,2)" index="7795" value="1"/>
  <variable name="C(18,3)" index="7796" value="2"/>
  <variable name="C(18,21)" index="7797" value="3"/>
  <variable name="C(20,5)" index="7805" value="1"/>
  <variable name="C(20,2)" index="7806" value="2"/>
  <variable name="C(21,4)" index="7809" value="1"/>
  <variable name="C(22,7)" index="7811" value="1"/>
  <variable name="C(27,1)" index="7845" value="1"/>
  <variable name="C(27,17)" index="7846" value="2"/>
  <variable name="C(30,17)" index="7863" value="1"/>
  <variable name="C(30,1)" index="7864" value="2"/>
  <variable name="C(33,15)" index="7879" value="1"/>
  <variable name="C(33,14)" index="7880" value="2"/>
  <variable name="C(36,10)" index="7890" value="1"/>
  <variable name="C(36,11)" index="7891" value="2"/>
  <variable name="C(36,19)" index="7892" value="3"/>
  <variable name="C(40,20)" index="7911" value="1"/>
  <variable name="C(40,21)" index="7912" value="2"/>
  <variable name="C(40,3)" index="7913" value="3"/>
  <variable name="C(40,2)" index="7914" value="4"/>
  <variable name="C(41,11)" index="7916" value="3"/>
  <variable name="C(41,16)" index="7917" value="4"/>
  <variable name="C(47,3)" index="7938" value="1"/>
  <variable name="C(49,5)" index="7948" value="1"/>
  <variable name="C(49,8)" index="7949" value="2"/>
  <variable name="C(49,6)" index="7950" value="3"/>
  <variable name="C(52,20)" index="7963" value="1"/>
  <variable name="C(52,19)" index="7964" value="2"/>
  <variable name="C(52,11)" index="7965" value="3"/>
  <variable name="C(61,15)" index="7992" value="1"/>
  <variable name="C(61,12)" index="7993" value="2"/>
  <variable name="C(71,15)" index="8033" value="1"/>
  <variable name="C(81,20)" index="8062" value="1"/>
  <variable name="C(81,12)" index="8063" value="2"/>
 </variables>
</CPLEXSolution>
